
(set-logic ALL) 

(declare-datatype MyList ((Nil) (Cons (head Real) (tail MyList)) )) 
(declare-fun l0 () MyList) 
(declare-fun l1 () MyList) 
(declare-fun l2 () MyList) 
(declare-fun l3 () MyList) 
(declare-fun i0 () Real) 
(declare-fun i1 () Real) 
(assert (or (is-Cons Nil) (= l0 Nil)) )
(assert (is-Nil Nil) )
(assert (is-Cons Nil) )
(assert (or (= l3 Nil) (is-Nil l1) (= l1 l1)) )
(assert (= l3 l0) )
(assert (is-Cons Nil) )
(assert (not (is-Nil l1)) )
(assert (= l0 l1) )
(check-sat)
